c pcminimize - minimizing a CNF with respect to propagation completeness by iterative removing of absorbed clauses.
c Petr Kucera, 2016-2021
c Version 2.7, revision 59, git hash 4910a71, date 2024-07-16 20:17:42 +0200
p cnf 335 386
163 -251 0
252 -253 0
-163 -253 0
134 -255 0
256 -257 0
-134 -257 0
213 -259 0
196 -259 0
260 -261 0
-196 -261 0
264 -266 0
265 -266 0
258 -267 0
262 -267 0
266 -267 0
70 -268 0
122 -269 0
65 -269 0
264 -270 0
-65 -270 0
-32 -272 0
-213 -272 0
272 -274 0
273 -274 0
274 -275 0
187 -275 0
265 -276 0
260 -276 0
276 -277 0
-187 -277 0
271 -280 0
278 -280 0
-70 -281 0
283 -284 0
66 -284 0
-170 -285 0
-66 -285 0
286 -287 0
8 -287 0
170 -288 0
288 -289 0
-8 -289 0
114 -291 0
292 -293 0
-114 -293 0
295 -296 0
237 -296 0
-237 -297 0
132 -299 0
300 -301 0
-132 -301 0
302 -303 0
235 -303 0
304 -305 0
305 -306 0
-235 -306 0
309 -315 0
310 -315 0
311 -315 0
312 -315 0
313 -315 0
314 -315 0
254 -316 0
282 -316 0
290 -316 0
294 -316 0
298 -316 0
307 -316 0
315 -316 0
-1 0
2 0
3 0
4 0
-5 0
-6 0
-7 0
9 0
10 0
-11 0
12 0
-13 0
-14 0
15 0
16 0
-17 0
18 0
19 0
20 0
21 0
22 0
-23 0
24 0
25 0
-26 0
27 0
28 0
-29 0
31 0
-33 0
34 0
35 0
-36 0
37 0
-38 0
-39 0
40 0
-41 0
42 0
-43 0
-44 0
45 0
46 0
47 0
-48 0
49 0
50 0
-51 0
52 0
53 0
54 0
55 0
56 0
57 0
58 0
59 0
60 0
61 0
-62 0
-63 0
67 0
-69 0
-71 0
-72 0
73 0
74 0
-77 0
-78 0
-79 0
-80 0
-81 0
82 0
83 0
84 0
-85 0
-86 0
87 0
88 0
-89 0
90 0
-91 0
-92 0
-94 0
-95 0
-96 0
-97 0
98 0
99 0
100 0
101 0
-102 0
103 0
104 0
105 0
-106 0
-107 0
-108 0
109 0
110 0
-112 0
-113 0
116 0
-117 0
-118 0
119 0
120 0
-121 0
123 0
-124 0
125 0
126 0
127 0
128 0
-129 0
130 0
131 0
-133 0
-135 0
136 0
-137 0
138 0
-139 0
140 0
141 0
-142 0
-143 0
-145 0
147 0
148 0
149 0
150 0
151 0
-152 0
153 0
154 0
155 0
-156 0
157 0
-158 0
159 0
-160 0
161 0
-162 0
164 0
165 0
-166 0
-167 0
-169 0
171 0
-172 0
-174 0
-175 0
-176 0
177 0
-178 0
179 0
-180 0
181 0
182 0
183 0
-184 0
185 0
-186 0
188 0
-189 0
190 0
-191 0
192 0
-193 0
194 0
195 0
197 0
198 0
199 0
200 0
-201 0
-203 0
-204 0
205 0
206 0
-207 0
-208 0
-209 0
210 0
211 0
-212 0
214 0
215 0
216 0
217 0
-218 0
-219 0
220 0
221 0
222 0
-223 0
-224 0
-225 0
-226 0
-227 0
228 0
229 0
230 0
-231 0
232 0
-233 0
234 0
-236 0
-238 0
239 0
240 0
241 0
-242 0
-243 0
-244 0
-245 0
246 0
-247 0
248 0
-249 0
250 0
-334 335 0
-324 325 0
108 323 0
-316 317 0
-319 320 0
111 292 0
235 306 0
-280 281 0
-304 305 0
-235 303 0
-302 303 0
-300 301 0
132 301 304 0
-299 302 0
-132 299 304 0
-295 296 0
144 295 0
-64 263 0
114 293 0
-330 331 0
-262 267 0
-114 291 0
-284 286 0
-256 257 0
-263 267 0
-329 330 0
-301 302 0
-46 332 0
-328 329 0
-288 289 0
-258 267 0
-8 287 0
-196 259 0
-286 287 0
-255 258 0
-305 306 0
-202 252 0
66 285 0
-325 326 0
-283 284 0
75 300 0
163 253 0
-237 296 0
-276 277 0
-308 316 0
-266 267 0
-292 293 0
-259 262 0
-332 333 0
237 297 0
134 257 0
-267 268 0
65 263 270 0
-333 334 0
-272 274 0
-274 275 0
-261 262 0
-275 278 0
-65 269 0
8 289 0
122 264 0
213 260 272 0
-278 280 0
115 256 0
-265 266 276 0
-252 253 0
-269 271 0
-134 255 279 0
187 263 277 0
-104 328 0
196 261 279 0
-163 251 0
-213 259 260 0
-279 280 0
-122 264 269 0
-264 266 270 0
-68 273 0
-270 271 0
32 265 272 0
-271 280 0
-260 261 276 0
-277 278 0
-321 322 0
-32 265 0
64 279 0
-75 299 300 305 0
-326 327 0
-257 258 0
-187 275 0
-317 319 0
-66 284 288 0
-82 318 0
-273 274 0
-101 324 0
-19 321 0
-126 308 0
